p cnf 27 168
4 7 11 16 22 29 37 46 56 0
8 12 17 23 30 38 47 57 68 0
13 18 24 31 39 48 58 69 81 0
-4 -8 0
-7 -12 0
-11 -17 0
-16 -23 0
-22 -30 0
-29 -38 0
-37 -47 0
-46 -57 0
-56 -68 0
-4 -13 0
-7 -18 0
-11 -24 0
-16 -31 0
-22 -39 0
-29 -48 0
-37 -58 0
-46 -69 0
-56 -81 0
-8 -13 0
-12 -18 0
-17 -24 0
-23 -31 0
-30 -39 0
-38 -48 0
-47 -58 0
-57 -69 0
-68 -81 0
-4 -17 0
-4 -23 0
-4 -30 0
-4 -47 0
-4 -57 0
-4 -68 0
-7 -17 0
-7 -30 0
-7 -38 0
-7 -47 0
-7 -57 0
-7 -68 0
-11 -23 0
-11 -38 0
-11 -68 0
-16 -30 0
-16 -38 0
-16 -47 0
-16 -57 0
-22 -47 0
-29 -47 0
-29 -57 0
-29 -68 0
-4 -24 0
-4 -31 0
-4 -39 0
-4 -58 0
-4 -69 0
-4 -81 0
-7 -24 0
-7 -39 0
-7 -48 0
-7 -58 0
-7 -69 0
-7 -81 0
-11 -31 0
-11 -48 0
-11 -81 0
-16 -39 0
-16 -48 0
-16 -58 0
-16 -69 0
-22 -58 0
-29 -58 0
-29 -69 0
-29 -81 0
-8 -11 0
-8 -16 0
-8 -22 0
-8 -37 0
-8 -46 0
-8 -56 0
-12 -11 0
-12 -22 0
-12 -29 0
-12 -37 0
-12 -46 0
-12 -56 0
-17 -16 0
-17 -29 0
-17 -56 0
-23 -22 0
-23 -29 0
-23 -37 0
-23 -46 0
-30 -37 0
-38 -37 0
-38 -46 0
-38 -56 0
-8 -24 0
-8 -31 0
-8 -39 0
-8 -58 0
-8 -69 0
-8 -81 0
-12 -24 0
-12 -39 0
-12 -48 0
-12 -58 0
-12 -69 0
-12 -81 0
-17 -31 0
-17 -48 0
-17 -81 0
-23 -39 0
-23 -48 0
-23 -58 0
-23 -69 0
-30 -58 0
-38 -58 0
-38 -69 0
-38 -81 0
-13 -11 0
-13 -16 0
-13 -22 0
-13 -37 0
-13 -46 0
-13 -56 0
-18 -11 0
-18 -22 0
-18 -29 0
-18 -37 0
-18 -46 0
-18 -56 0
-24 -16 0
-24 -29 0
-24 -56 0
-31 -22 0
-31 -29 0
-31 -37 0
-31 -46 0
-39 -37 0
-48 -37 0
-48 -46 0
-48 -56 0
-13 -17 0
-13 -23 0
-13 -30 0
-13 -47 0
-13 -57 0
-13 -68 0
-18 -17 0
-18 -30 0
-18 -38 0
-18 -47 0
-18 -57 0
-18 -68 0
-24 -23 0
-24 -38 0
-24 -68 0
-31 -30 0
-31 -38 0
-31 -47 0
-31 -57 0
-39 -47 0
-48 -47 0
-48 -57 0
-48 -68 0
